c Sudoku solution
p cnf 729 0
233 0
266 0
278 0
295 0
324 0
358 0
379 0
423 0
457 0
534 0
551 0
587 0
628 0
649 0
673 0
738 0
118 0
744 0
797 0
177 0
827 0
848 0
853 0
872 0
959 0
169 0
961 0
865 0
762 0
756 0
947 0
217 0
229 0
637 0
367 0
563 0
468 0
598 0
519 0
789 0
713 0
839 0
664 0
988 0
993 0
499 0
685 0
576 0
446 0
616 0
691 0
474 0
482 0
522 0
545 0
652 0
155 0
254 0
771 0
975 0
725 0
811 0
914 0
932 0
926 0
415 0
431 0
312 0
335 0
242 0
281 0
341 0
143 0
383 0
396 0
121 0
136 0
184 0
192 0
886 0
894 0
